 C  N Fe  O  H                          
   1.00000000000000     
    10.6973130077000000   -5.9116181480999996    0.0000000000000000
     0.0000000000000000   12.2221002578999993    0.0000000000000000
     0.0000000000000000    0.0000000000000000   20.0000000000000000
   C    N    Fe   O    H 
    45     4     1     2     2
Direct
  0.0556930110994927  0.1283192606486239  0.1982550003464851
  0.1245632513290786  0.0648451054651034  0.1935835321461497
  0.0535685681513201  0.3287662331776957  0.1948907682889711
  0.1159066666522364  0.2576983656937131  0.2003956084637153
  0.0573671735240566  0.5298248338556988  0.1926080273980730
  0.1258875824648271  0.4605463033238166  0.1916050373198601
  0.0617084158540635  0.7277182244317473  0.1898678484310423
  0.1259526279913104  0.6600578059859856  0.1861144232664955
  0.0587881508121129  0.9298175587447872  0.1920150020605789
  0.1246292804002280  0.8587617220823205  0.1960174643293655
  0.2541280133865484  0.1258113096422093  0.1989587160463202
  0.3237186996946662  0.0594623560771055  0.2010375415207051
  0.2472151312191357  0.3224072726564486  0.1949225768287093
  0.3158749792258035  0.2558761350997898  0.1956060349676534
  0.2566420783657790  0.5194934096132968  0.1925196739475368
  0.2600129377721672  0.7220573498391261  0.1893455531183079
  0.3284892866519868  0.6557312025350370  0.1927870139387764
  0.2546912680574991  0.9246379204162807  0.2006339111371105
  0.3236021668163218  0.8585902093104920  0.1916398810714028
  0.4565112716665567  0.1318219000954741  0.1924361625647677
  0.5236533622581305  0.0641078044147676  0.1890228068654238
  0.5166378459704788  0.2687366144791952  0.1917232895047860
  0.4637154846917184  0.7278131430527992  0.1904969039639965
  0.4575573978341083  0.9286203206054537  0.1904936371073447
  0.5216155900680235  0.8603105852525132  0.1899297930837989
  0.6585008767269258  0.1358988956721063  0.1875784747047717
  0.7254621557696410  0.0700801736372583  0.1909927030598553
  0.6515495586839890  0.3395309326345597  0.1927355306698786
  0.7162359543302301  0.2672613529824801  0.1948621873645351
  0.7206484473181973  0.4719985239522302  0.1908381397861945
  0.6624456677474839  0.7412889478248204  0.1784478679662840
  0.7316393341918186  0.6755500035147577  0.1843884378777219
  0.6554783949819409  0.9361493168902655  0.1906667251978291
  0.7245847840282522  0.8728400809452523  0.1887584540196769
  0.8572253706932713  0.1342931854139024  0.1944784991240169
  0.9249702866968192  0.0695018869612127  0.2014862782136291
  0.8504850957210053  0.3315248564879525  0.1928328516660187
  0.9200811867010543  0.2678922156808170  0.1919773771801090
  0.8553079680539852  0.5358495541473616  0.1896902967352005
  0.9235556348668297  0.4693451929130745  0.1949379191497513
  0.8577401490228027  0.7330358495698732  0.1882510011616674
  0.9233085291041263  0.6655148534456643  0.1905612137724049
  0.8646732472977732  0.9386956059016711  0.1953451517031866
  0.9241959727932780  0.8659113581354276  0.1890844543114127
  0.5333457502122485  0.5483907304071067  0.2912116722863871
  0.3173938322105059  0.4510490005746775  0.1979523607915255
  0.4445856674005384  0.3270255589862359  0.1941624779490354
  0.5308136771343186  0.6639911069915314  0.1784442474776569
  0.6660875150422711  0.5504272178226017  0.1898178769395926
  0.4915415048740215  0.5043074406977865  0.2085949940844642
  0.5622000433249923  0.5825418880789570  0.3474868729441454
  0.5868474248748683  0.6963716555690453  0.5214658279293545
  0.5501680608165813  0.6572937067549418  0.4784869045476228
  0.5635485251733385  0.6263815177302021  0.5529036140632968
 