 C  N Fe  O 
 1.0000000000000000
    10.7070632775794223   -5.9176540408942104    0.0000000000000000
     0.0000000000000000   12.2335653887575670    0.0000000000000000
     0.0000000000000000    0.0000000000000000   20.0000000000000000
 C   N   Fe  O  
  44   4   1   1
Cartesian
  1.4448789912176749  1.5089658543075628  6.8880573396806151
  2.1620835571474228  0.2929738204472143  6.8880150712414885
  1.4382527969185475  3.9685749017369574  6.9391330617726590
  2.1360310229550188  2.7412504422485506  6.9143171974938564
  1.4769908493658856  6.3987978116036057  6.9688321043885599
  2.1868663381551530  5.1702366043546082  6.9648414592894810
  1.5049702568504499  8.8328607413175018  6.9431608940656515
  2.2199833927968489  7.6088751554883203  6.9683401346844738
  1.4797877325557702 11.2923549456681442  6.8924443150257302
  2.2016785217168908 10.0686099616343316  6.9228963230248022
  3.5749124470768829  0.3017649761552888  6.9143605735108107
  4.3115480972460496 -0.9025938459202233  6.9390022626141876
  3.5388458665963931  2.7597477691920353  6.9449084664394860
  4.2697776170143893  1.5206150094714712  6.9451327148586941
  3.6309645527547314  5.1281504901095589  6.9912219091424639
  3.6596167761617311  7.5969826749649947  6.9814424662904306
  4.3870347876506921  6.3638890998081115  7.0021620746594628
  3.6202219331502126 10.0806006037005105  6.9421246061430537
  4.3456090202183697  8.8627890464102084  6.9680675112031105
  5.7254443329496727 -0.8287033637391009  6.9651015038298603
  6.4573209027976448 -2.0441775351444198  6.9688460062959754
  6.3871666992186196  0.4555733508502515  6.9919615127304633
  5.8343060543680423  6.4280649986313980  6.9934357785243444
  5.7640991555222421  8.9277687802328316  6.9688887762140519
  6.4960519638256926  7.7123460330367557  6.9665989395951069
  7.8758511318035618 -1.9792092988738004  6.9688024798678585
  8.6013196876391191 -3.1970211228020662  6.9433599698021622
  7.8344085946438327  0.5196489653120031  7.0033438270742456
  8.5618036596627007 -0.7134273237110315  6.9824993701498625
  8.5906273547693885  1.7553139389481449  6.9944847717881862
  7.9517063781951745  5.3629563891994838  6.9497592432836601
  8.6826051146596654  4.1237710765041777  6.9500637983774105
  7.9099303256828364  7.7862174513569666  6.9411951500035203
  8.6465404520845439  6.5817642208284024  6.9180028343673010
 10.0198941160202910 -3.1850525808409218  6.9231870370592752
  0.0346699201664954  1.5088165095369543  6.8925423975398310
 10.0015206462795767 -0.7253776596492069  6.9690105058469438
  0.0095305840242068  3.9683478709058244  6.9426726929833480
 10.0347451050425285  1.7133027377735341  6.9672918351388979
  0.0374521956408559  6.4023678343460579  6.9695473229173359
 10.0854851614945140  4.1423459980582429  6.9182115480085864
  0.0762045935545215  8.8326653889751920  6.9414786512207556
 10.0593744401948797  6.5905800085941921  6.8907549402282040
  0.0695208771951875 11.2922195309437434  6.8907094511209150
  4.2496951977623461  3.9123915844955106  6.9948242208466844
  5.6224273359578971  1.5852007706343105  6.9954540112651840
  6.5989869330738244  5.2984099754358622  6.9988228950104441
  7.9719067965721742  2.9710507647150872  6.9996492499501182
  6.1102581155677855  3.4416171065573296  7.3014826686947236
  6.1066136307953096  3.4403574168102593  8.9427306581182027
